n = 4;
pattern_length = 4;
num_patterns = 24;
num_classes = 6;
pattern = [|
1, 2, 3, 4
| 1, 2, 4, 3
| 1, 3, 2, 4
| 1, 3, 4, 2
| 1, 4, 2, 3
| 1, 4, 3, 2
| 2, 1, 3, 4
| 2, 1, 4, 3
| 2, 3, 1, 4
| 2, 3, 4, 1
| 2, 4, 1, 3
| 2, 4, 3, 1
| 3, 1, 2, 4
| 3, 1, 4, 2
| 3, 2, 1, 4
| 3, 2, 4, 1
| 3, 4, 1, 2
| 3, 4, 2, 1
| 4, 1, 2, 3
| 4, 1, 3, 2
| 4, 2, 1, 3
| 4, 2, 3, 1
| 4, 3, 1, 2
| 4, 3, 2, 1
|];
class = [{1, 10, 19, 17}, {2, 12, 13, 23}, {11, 16, 3, 20}, {18, 4, 21, 7}, {9, 5, 14, 22}, {8, 24, 6, 15}];
